1958 1268 1 3 4 5 6 7 8 10 13 15 16 21 23 24 25 26 29 31 32 35 37 38 39 40 41 42 43 44 45 46 48 49 50 51 52 53 54 55 56 57 58 59 60 63 64 65 67 68 70 71 72 73 77 78 79 80 81 82 84 86 87 88 93 94 95 96 98 99 100 